20
2 0 4
3 1 4
4 1 4
5 3 3
5 4 5
6 2 1
6 3 3
6 5 2
7 0 5
7 1 3
8 4 3
9 7 4
10 2 3
10 5 3
10 6 5
10 7 3
10 9 4
11 5 4
11 9 4
12 1 4
12 2 1
12 3 4
12 4 5
12 6 3
12 7 2
13 1 2
13 2 4
13 3 3
13 4 2
13 10 3
13 11 1
14 0 2
14 2 1
14 4 2
14 5 4
14 7 4
14 8 2
14 9 5
14 12 1
15 3 2
15 4 2
15 5 2
15 6 1
15 8 1
15 9 5
15 10 1
15 12 4
15 13 4
15 14 2
16 0 1
16 2 1
16 4 1
16 6 4
16 7 5
16 9 4
16 10 3
16 12 3
16 13 4
16 15 5
17 3 4
17 4 2
17 5 4
17 6 3
17 8 3
17 9 1
17 14 4
17 15 1
17 16 1
18 0 3
18 1 4
18 2 5
18 5 2
18 8 5
18 9 5
18 11 2
18 13 4
18 15 5
18 16 2
18 17 1
19 0 5
19 2 5
19 3 4
19 5 5
19 6 1
19 8 2
19 12 5
19 13 4
19 14 3
19 16 3
19 17 1
